#************************************************************************************
#*                   Generated by cif2cell 2.0.0 2022-11-07 21:48                   *
#*  T. Bjorkman, Comp. Phys. Commun. 182, 1183-1186 (2011). Please cite generously. *
#*                                                                                  *
#*                              Data obtained from COD                              *
#*                                    None   ()                                     *
#*             Failed to get author information, No journal information             *
#************************************************************************************

&CONTROL
 calculation='scf',
 outdir='.',
 prefix='cryst',
 pseudo_dir='../../my-pseudo-library',
 verbosity='low',
 tprnfor=.true.,
 tstress=.true.,
/

&SYSTEM
  ibrav = 0
  A =    5.65500
  nat = 16
  ntyp = 2
  ecutwfc=64,
  ecutrho=782,
  input_dft='pbe',
  occupations='smearing',
  smearing='mv',
  degauss=0.005d0,
  nspin=2,
  starting_magnetization(1)=1,
  starting_magnetization(2)=1,
/

&ELECTRONS
  conv_thr=1d-08,
  mixing_beta=0.7d0,
/

CELL_PARAMETERS {alat}
  1.000000000000000   0.000000000000000   0.000000000000000 
  0.000000000000000   1.000000000000000   0.000000000000000 
  0.000000000000000   0.000000000000000   1.000000000000000 
ATOMIC_SPECIES
  Si   28.08500  Si.pbe-n-rrkjus_psl.1.0.0.UPF
  Fe   55.84500  Fe.pbe-spn-kjpaw_psl.0.2.1.UPF
ATOMIC_POSITIONS {crystal}
Fe   0.500000000000000   0.500000000000000   0.500000000000000 
Fe   0.500000000000000   0.000000000000000   0.000000000000000 
Fe   0.000000000000000   0.500000000000000   0.000000000000000 
Fe   0.000000000000000   0.000000000000000   0.500000000000000 
Fe   0.250000000000000   0.250000000000000   0.250000000000000 
Fe   0.750000000000000   0.750000000000000   0.750000000000000 
Fe   0.750000000000000   0.750000000000000   0.250000000000000 
Fe   0.250000000000000   0.250000000000000   0.750000000000000 
Fe   0.750000000000000   0.250000000000000   0.750000000000000 
Fe   0.250000000000000   0.750000000000000   0.250000000000000 
Fe   0.250000000000000   0.750000000000000   0.750000000000000 
Fe   0.750000000000000   0.250000000000000   0.250000000000000 
Fe   0.000000000000000   0.000000000000000   0.000000000000000 
Si   0.000000000000000   0.500000000000000   0.500000000000000 
Si   0.500000000000000   0.000000000000000   0.500000000000000 
Si   0.500000000000000   0.500000000000000   0.000000000000000 
K_POINTS {automatic}
 5 5 5 0 0 0