#******************************************************************************************
#*                      Generated by cif2cell 2.0.0 2022-11-29 8:57                       *
#*     T. Bjorkman, Comp. Phys. Commun. 182, 1183-1186 (2011). Please cite generously.    *
#*                                                                                        *
#*                                   None   (Gupeiite)                                    *
#* Farquhar, M. C. M. et al., Journal of the Iron and Steel Institute 152, 457-472 (1945) *
#******************************************************************************************
&CONTROL
  calculation="scf",
  outdir=".",
  prefix="file",
  pseudo_dir="."
  verbosity="low",
  tprnfor=.true.,
  tstress=.true.,
/

&SYSTEM
  ibrav = 0
  A =    5.65500
  nat = 128
  ntyp = 2
  ecutwfc=50,
  ecutrho=200,
  input_dft="pbe",
  occupations="smearing",
  smearing="mv",
  degauss=0.005d0,
/
&ELECTRONS
  conv_thr=1d-08,
  mixing_beta=0.7d0,
/
CELL_PARAMETERS {alat}
  2.000000000000000   0.000000000000000   0.000000000000000 
  0.000000000000000   2.000000000000000   0.000000000000000 
  0.000000000000000   0.000000000000000   2.000000000000000 
ATOMIC_SPECIES
  Si   28.08500  Si_PSEUDO
  Fe   55.84500  Fe_PSEUDO
ATOMIC_POSITIONS {crystal}
Fe   0.250000000000000   0.250000000000000   0.250000000000000 
Fe   0.000000000000000   0.250000000000000   0.000000000000000 
Fe   0.250000000000000   0.000000000000000   0.000000000000000 
Fe   0.000000000000000   0.000000000000000   0.250000000000000 
Fe   0.750000000000000   0.750000000000000   0.250000000000000 
Fe   0.750000000000000   0.250000000000000   0.250000000000000 
Fe   0.250000000000000   0.750000000000000   0.750000000000000 
Fe   0.250000000000000   0.250000000000000   0.750000000000000 
Fe   0.750000000000000   0.750000000000000   0.750000000000000 
Fe   0.750000000000000   0.250000000000000   0.750000000000000 
Fe   0.250000000000000   0.750000000000000   0.250000000000000 
Fe   0.500000000000000   0.750000000000000   0.000000000000000 
Fe   0.500000000000000   0.250000000000000   0.000000000000000 
Fe   0.000000000000000   0.750000000000000   0.500000000000000 
Fe   0.000000000000000   0.250000000000000   0.500000000000000 
Fe   0.500000000000000   0.750000000000000   0.500000000000000 
Fe   0.500000000000000   0.250000000000000   0.500000000000000 
Fe   0.000000000000000   0.750000000000000   0.000000000000000 
Fe   0.750000000000000   0.500000000000000   0.000000000000000 
Fe   0.750000000000000   0.000000000000000   0.000000000000000 
Fe   0.250000000000000   0.500000000000000   0.500000000000000 
Fe   0.250000000000000   0.000000000000000   0.500000000000000 
Fe   0.750000000000000   0.500000000000000   0.500000000000000 
Fe   0.750000000000000   0.000000000000000   0.500000000000000 
Fe   0.250000000000000   0.500000000000000   0.000000000000000 
Fe   0.500000000000000   0.500000000000000   0.250000000000000 
Fe   0.500000000000000   0.000000000000000   0.250000000000000 
Fe   0.000000000000000   0.500000000000000   0.750000000000000 
Fe   0.000000000000000   0.000000000000000   0.750000000000000 
Fe   0.500000000000000   0.500000000000000   0.750000000000000 
Fe   0.500000000000000   0.000000000000000   0.750000000000000 
Fe   0.000000000000000   0.500000000000000   0.250000000000000 
Fe   0.125000000000000   0.125000000000000   0.125000000000000 
Fe   0.375000000000000   0.125000000000000   0.125000000000000 
Fe   0.125000000000000   0.375000000000000   0.125000000000000 
Fe   0.125000000000000   0.125000000000000   0.375000000000000 
Fe   0.375000000000000   0.125000000000000   0.375000000000000 
Fe   0.375000000000000   0.375000000000000   0.375000000000000 
Fe   0.375000000000000   0.375000000000000   0.125000000000000 
Fe   0.125000000000000   0.375000000000000   0.375000000000000 
Fe   0.625000000000000   0.625000000000000   0.125000000000000 
Fe   0.625000000000000   0.125000000000000   0.125000000000000 
Fe   0.125000000000000   0.625000000000000   0.625000000000000 
Fe   0.125000000000000   0.125000000000000   0.625000000000000 
Fe   0.625000000000000   0.625000000000000   0.625000000000000 
Fe   0.625000000000000   0.125000000000000   0.625000000000000 
Fe   0.125000000000000   0.625000000000000   0.125000000000000 
Fe   0.875000000000000   0.625000000000000   0.125000000000000 
Fe   0.875000000000000   0.125000000000000   0.125000000000000 
Fe   0.375000000000000   0.625000000000000   0.625000000000000 
Fe   0.375000000000000   0.125000000000000   0.625000000000000 
Fe   0.875000000000000   0.625000000000000   0.625000000000000 
Fe   0.875000000000000   0.125000000000000   0.625000000000000 
Fe   0.375000000000000   0.625000000000000   0.125000000000000 
Fe   0.625000000000000   0.875000000000000   0.125000000000000 
Fe   0.625000000000000   0.375000000000000   0.125000000000000 
Fe   0.125000000000000   0.875000000000000   0.625000000000000 
Fe   0.125000000000000   0.375000000000000   0.625000000000000 
Fe   0.625000000000000   0.875000000000000   0.625000000000000 
Fe   0.625000000000000   0.375000000000000   0.625000000000000 
Fe   0.125000000000000   0.875000000000000   0.125000000000000 
Fe   0.625000000000000   0.625000000000000   0.375000000000000 
Fe   0.625000000000000   0.125000000000000   0.375000000000000 
Fe   0.125000000000000   0.625000000000000   0.875000000000000 
Fe   0.125000000000000   0.125000000000000   0.875000000000000 
Fe   0.625000000000000   0.625000000000000   0.875000000000000 
Fe   0.625000000000000   0.125000000000000   0.875000000000000 
Fe   0.125000000000000   0.625000000000000   0.375000000000000 
Fe   0.875000000000000   0.625000000000000   0.375000000000000 
Fe   0.875000000000000   0.125000000000000   0.375000000000000 
Fe   0.375000000000000   0.625000000000000   0.875000000000000 
Fe   0.375000000000000   0.125000000000000   0.875000000000000 
Fe   0.875000000000000   0.625000000000000   0.875000000000000 
Fe   0.875000000000000   0.125000000000000   0.875000000000000 
Fe   0.375000000000000   0.625000000000000   0.375000000000000 
Fe   0.875000000000000   0.875000000000000   0.375000000000000 
Fe   0.875000000000000   0.375000000000000   0.375000000000000 
Fe   0.375000000000000   0.875000000000000   0.875000000000000 
Fe   0.375000000000000   0.375000000000000   0.875000000000000 
Fe   0.875000000000000   0.875000000000000   0.875000000000000 
Fe   0.875000000000000   0.375000000000000   0.875000000000000 
Fe   0.375000000000000   0.875000000000000   0.375000000000000 
Fe   0.875000000000000   0.875000000000000   0.125000000000000 
Fe   0.875000000000000   0.375000000000000   0.125000000000000 
Fe   0.375000000000000   0.875000000000000   0.625000000000000 
Fe   0.375000000000000   0.375000000000000   0.625000000000000 
Fe   0.875000000000000   0.875000000000000   0.625000000000000 
Fe   0.875000000000000   0.375000000000000   0.625000000000000 
Fe   0.375000000000000   0.875000000000000   0.125000000000000 
Fe   0.625000000000000   0.875000000000000   0.375000000000000 
Fe   0.625000000000000   0.375000000000000   0.375000000000000 
Fe   0.125000000000000   0.875000000000000   0.875000000000000 
Fe   0.125000000000000   0.375000000000000   0.875000000000000 
Fe   0.625000000000000   0.875000000000000   0.875000000000000 
Fe   0.625000000000000   0.375000000000000   0.875000000000000 
Fe   0.125000000000000   0.875000000000000   0.375000000000000 
Si   0.000000000000000   0.000000000000000   0.000000000000000 
Si   0.250000000000000   0.000000000000000   0.250000000000000 
Si   0.000000000000000   0.250000000000000   0.250000000000000 
Si   0.250000000000000   0.250000000000000   0.000000000000000 
Si   0.500000000000000   0.500000000000000   0.000000000000000 
Si   0.500000000000000   0.000000000000000   0.000000000000000 
Si   0.000000000000000   0.500000000000000   0.500000000000000 
Si   0.000000000000000   0.000000000000000   0.500000000000000 
Si   0.500000000000000   0.500000000000000   0.500000000000000 
Si   0.500000000000000   0.000000000000000   0.500000000000000 
Si   0.000000000000000   0.500000000000000   0.000000000000000 
Si   0.750000000000000   0.500000000000000   0.250000000000000 
Si   0.750000000000000   0.000000000000000   0.250000000000000 
Si   0.250000000000000   0.500000000000000   0.750000000000000 
Si   0.250000000000000   0.000000000000000   0.750000000000000 
Si   0.750000000000000   0.500000000000000   0.750000000000000 
Si   0.750000000000000   0.000000000000000   0.750000000000000 
Si   0.250000000000000   0.500000000000000   0.250000000000000 
Si   0.500000000000000   0.750000000000000   0.250000000000000 
Si   0.500000000000000   0.250000000000000   0.250000000000000 
Si   0.000000000000000   0.750000000000000   0.750000000000000 
Si   0.000000000000000   0.250000000000000   0.750000000000000 
Si   0.500000000000000   0.750000000000000   0.750000000000000 
Si   0.500000000000000   0.250000000000000   0.750000000000000 
Si   0.000000000000000   0.750000000000000   0.250000000000000 
Si   0.750000000000000   0.750000000000000   0.000000000000000 
Si   0.750000000000000   0.250000000000000   0.000000000000000 
Si   0.250000000000000   0.750000000000000   0.500000000000000 
Si   0.250000000000000   0.250000000000000   0.500000000000000 
Si   0.750000000000000   0.750000000000000   0.500000000000000 
Si   0.750000000000000   0.250000000000000   0.500000000000000 
Si   0.250000000000000   0.750000000000000   0.000000000000000 
K_POINTS {automatic}
  7 7 7 0 0 0
