#************************************************************************************
#*                   Generated by cif2cell 2.0.0 2022-12-03 18:39                   *
#*  T. Bjorkman, Comp. Phys. Commun. 182, 1183-1186 (2011). Please cite generously. *
#*                                                                                  *
#*                              Data obtained from COD                              *
#*                                    None   ()                                     *
#*             Failed to get author information, No journal information             *
#************************************************************************************

&CONTROL
 calculation='scf',
 outdir='.',
 prefix='cryst',
 pseudo_dir='.',
 verbosity='low',
 tprnfor=.true.,
 tstress=.true.,
/

&SYSTEM
  ibrav = 0
  A =    8.56072
  nat = 54
  ntyp = 2
  ecutwfc=65,
  ecutrho=450,
  input_dft='pbe',
  occupations='smearing',
  smearing='mv',
  degauss=0.005d0,
  nspin=2,
  starting_magnetization(1)=1,
  starting_magnetization(2)=1,
/

&ELECTRONS
  conv_thr=1d-08,
  mixing_beta=0.7d0,
/
CELL_PARAMETERS {alat}
  1.000000000000000   0.000000000000000   0.000000000000000 
  0.000000000000000   1.000000000000000   0.000000000000000 
  0.000000000000000   0.000000000000000   1.000000000000000 
ATOMIC_SPECIES
  Fe   55.84500  Fe.pbe-spn-kjpaw_psl.0.2.1.UPF
  Si   28.08500  Si.pbe-n-rrkjus_psl.1.0.0.UPF
ATOMIC_POSITIONS {crystal}
Fe   0.000000000000000   0.000000000000000   0.000000000000000 
Fe   0.000000000000000   0.000000000000000   0.333333333333333 
Fe   0.000000000000000   0.000000000000000   0.666666666666667 
Fe   0.333333333333333   0.000000000000000   0.000000000000000 
Fe   0.666666666666667   0.000000000000000   0.000000000000000 
Fe   0.000000000000000   0.333333333333333   0.000000000000000 
Fe   0.000000000000000   0.666666666666667   0.000000000000000 
Fe   0.166667000000000   0.166667000000000   0.500000000000000 
Fe   0.166667000000000   0.166667000000000   0.833333000000000 
Fe   0.500000000000000   0.166667000000000   0.166667000000000 
Fe   0.833333000000000   0.166667000000000   0.166667000000000 
Fe   0.166667000000000   0.500000000000000   0.166667000000000 
Fe   0.166667000000000   0.833333000000000   0.166667000000000 
Fe   0.000000000000000   0.333333333333333   0.333333333333333 
Fe   0.000000000000000   0.666666666666667   0.666666666666667 
Fe   0.000000000000000   0.666666666666667   0.333333333333333 
Fe   0.000000000000000   0.333333333333333   0.666666666666667 
Fe   0.333333333333333   0.000000000000000   0.333333333333333 
Fe   0.666666666666667   0.000000000000000   0.666666666666667 
Fe   0.333333333333333   0.000000000000000   0.666666666666667 
Fe   0.666666666666667   0.000000000000000   0.333333333333333 
Fe   0.333333333333333   0.333333333333333   0.000000000000000 
Fe   0.666666666666667   0.666666666666667   0.000000000000000 
Fe   0.666666666666667   0.333333333333333   0.000000000000000 
Fe   0.333333333333333   0.666666666666667   0.000000000000000 
Fe   0.166667000000000   0.500000000000000   0.500000000000000 
Fe   0.166667000000000   0.833333000000000   0.500000000000000 
Fe   0.166667000000000   0.500000000000000   0.833333000000000 
Fe   0.500000000000000   0.166667000000000   0.500000000000000 
Fe   0.500000000000000   0.166667000000000   0.833333000000000 
Fe   0.833333000000000   0.166667000000000   0.500000000000000 
Fe   0.500000000000000   0.500000000000000   0.166667000000000 
Fe   0.833333000000000   0.500000000000000   0.166667000000000 
Fe   0.500000000000000   0.833333000000000   0.166667000000000 
Fe   0.333333333333333   0.333333333333333   0.333333333333333 
Fe   0.666666666666667   0.666666666666667   0.666666666666667 
Fe   0.666666666666667   0.666666666666667   0.333333333333333 
Fe   0.333333333333333   0.333333333333333   0.666666666666667 
Fe   0.666666666666667   0.333333333333333   0.666666666666667 
Fe   0.333333333333333   0.666666666666667   0.333333333333333 
Fe   0.333333333333333   0.666666666666667   0.666666666666667 
Fe   0.666666666666667   0.333333333333333   0.333333333333333 
Fe   0.833333000000000   0.833333000000000   0.833333000000000 
Fe   0.833333000000000   0.833333000000000   0.500000000000000 
Fe   0.500000000000000   0.500000000000000   0.833333000000000 
Fe   0.833333000000000   0.500000000000000   0.833333000000000 
Fe   0.500000000000000   0.833333000000000   0.500000000000000 
Fe   0.500000000000000   0.833333000000000   0.833333000000000 
Fe   0.833333000000000   0.500000000000000   0.500000000000000 
Si   0.166667000000000   0.166667000000000   0.166667000000000 
Si   0.166667000000000   0.833333000000000   0.833333000000000 
Si   0.833333000000000   0.166667000000000   0.833333000000000 
Si   0.833333000000000   0.833333000000000   0.166667000000000 
Si   0.500000000000000   0.500000000000000   0.500000000000000 
K_POINTS {automatic}
  5 5 5 0 0 0