#**********************************************************************************************
#*                        Generated by cif2cell 2.0.0 2022-10-19 10:41                        *
#*       T. Bjorkman, Comp. Phys. Commun. 182, 1183-1186 (2011). Please cite generously.      *
#*                                                                                            *
#*                                         None   ()                                          *
#* Patrick M. Woodward et al., Journal of the American Chemical Society 125, 8889-8899 (2003) *
#**********************************************************************************************
&CONTROL
  calculation='scf',
  outdir='.',
  prefix='file',
  pseudo_dir='.'
  verbosity='low',
  tprnfor=.true.,
  tstress=.true.,
/

&SYSTEM
  ibrav = 0
  A =    2.86661
  nat = 1
  ntyp = 1
  nspin = 2,
  starting_magnetization(1)=1,
  ecutwfc=54,
  ecutrho=432,
  input_dft='pbe',
  occupations='smearing',
  smearing='mv',
  degauss=0.005d0,
/
&ELECTRONS
  conv_thr=1d-08,
  mixing_beta=0.7d0,
/
CELL_PARAMETERS {alat}
 -0.500000000000000   0.500000000000000   0.500000000000000 
  0.500000000000000  -0.500000000000000   0.500000000000000 
  0.500000000000000   0.500000000000000  -0.500000000000000 
ATOMIC_SPECIES
  Fe   55.84500  Fe.pbe-spn-kjpaw_psl.0.2.1.UPF
ATOMIC_POSITIONS {crystal}
Fe   0.000000000000000   0.000000000000000   0.000000000000000 
K_POINTS {automatic}
  5 5 5 0 0 0
