#***********************************************************************************************************
#*                               Generated by cif2cell 2.0.0 2022-11-17 21:09                              *
#*              T. Bjorkman, Comp. Phys. Commun. 182, 1183-1186 (2011). Please cite generously.            *
#*                                                                                                         *
#*                                                None   ()                                                *
#* Kitano, A. et al., Physical Review, Serie 3. B - Condensed Matter (18,1978-) 64, 0452061-0452069 (2001) *
#***********************************************************************************************************

&CONTROL
 calculation='vc-relax',
 outdir='.',
 prefix='Silicon',
 pseudo_dir='/home/max/workQE/Pseudos'
 verbosity='low',
 tprnfor=.true.,
 tstress=.true.,
/


&SYSTEM
  ibrav = 0
  A =    5.38100
  nat = 2
  ntyp = 1
  ecutwfc=34,
  ecutrho=136,
  input_dft='pbe',
  occupations='smearing',
  smearing='mv',
  degauss=0.005d0,
/

&ELECTRONS
 conv_thr=1d-08,
 mixing_beta=0.7d0,
/

&IONS
 ion_dynamics='bfgs',
/

&CELL
 cell_dynamics='bfgs',
 press=0.d0,
 press_conv_thr=0.5d0,
/

CELL_PARAMETERS {alat}
  0.500000000000000   0.500000000000000   0.000000000000000 
  0.500000000000000   0.000000000000000   0.500000000000000 
  0.000000000000000   0.500000000000000   0.500000000000000 
ATOMIC_SPECIES
  Si   28.08500  Si.pbe-n-rrkjus_psl.1.0.0.UPF
ATOMIC_POSITIONS {crystal}
Si   0.000000000000000   0.000000000000000   0.000000000000000 
Si   0.250000000000000   0.250000000000000   0.250000000000000 

K_POINTS {automatic}
  7 7 7 0 0 0
