#************************************************************************************
#*                   Generated by cif2cell 2.0.0 2022-11-27 23:10                   *
#*  T. Bjorkman, Comp. Phys. Commun. 182, 1183-1186 (2011). Please cite generously. *
#*                                                                                  *
#*                              Data obtained from COD                              *
#*                                    None   ()                                     *
#*             Failed to get author information, No journal information             *
#************************************************************************************

&CONTROL
  calculation="scf",
  outdir=".",
  prefix="file",
  pseudo_dir="."
  verbosity="low",
  tprnfor=.true.,
  tstress=.true.,
/

&SYSTEM
  ibrav = 0
  A = 11.31000
  nat = 128
  ntyp = 2
  nspin = 2,
  starting_magnetization(1)=1,
  starting_magnetization(2)=1,
  ecutwfc=54,
  ecutrho=432,
  input_dft="pbe",
  occupations="smearing",
  smearing="mv",
  degauss=0.005d0,
/

&ELECTRONS
  conv_thr=1d-08,
  mixing_beta=0.7d0,
/

&IONS
  ion_dynamics="bfgs",
/

&CELL
  cell_dynamics="bfgs",
  press=0.d0,
  press_conv_thr=0.5d0,
/

CELL_PARAMETERS {alat}
  1.000000000000000   0.000000000000000   0.000000000000000 
  0.000000000000000   1.000000000000000   0.000000000000000 
  0.000000000000000   0.000000000000000   1.000000000000000 
ATOMIC_SPECIES
  Si   28.08500  Si.pbe-n-rrkjus_psl.1.0.0.UPF
  Fe   55.84500  Fe.pbe-spn-kjpaw_psl.0.2.1.UPF
ATOMIC_POSITIONS {crystal}
Fe   0.125000000000000   0.125000000000000   0.125000000000000 
Fe   0.625000000000000   0.625000000000000   0.625000000000000 
Fe   0.625000000000000   0.625000000000000   0.125000000000000 
Fe   0.125000000000000   0.125000000000000   0.625000000000000 
Fe   0.625000000000000   0.125000000000000   0.625000000000000 
Fe   0.125000000000000   0.625000000000000   0.125000000000000 
Fe   0.125000000000000   0.625000000000000   0.625000000000000 
Fe   0.625000000000000   0.125000000000000   0.125000000000000 
Fe   0.125000000000000   0.375000000000000   0.375000000000000 
Fe   0.625000000000000   0.875000000000000   0.875000000000000 
Fe   0.625000000000000   0.875000000000000   0.375000000000000 
Fe   0.125000000000000   0.375000000000000   0.875000000000000 
Fe   0.625000000000000   0.375000000000000   0.875000000000000 
Fe   0.125000000000000   0.875000000000000   0.375000000000000 
Fe   0.125000000000000   0.875000000000000   0.875000000000000 
Fe   0.625000000000000   0.375000000000000   0.375000000000000 
Fe   0.375000000000000   0.125000000000000   0.375000000000000 
Fe   0.875000000000000   0.625000000000000   0.875000000000000 
Fe   0.875000000000000   0.625000000000000   0.375000000000000 
Fe   0.375000000000000   0.125000000000000   0.875000000000000 
Fe   0.875000000000000   0.125000000000000   0.875000000000000 
Fe   0.375000000000000   0.625000000000000   0.375000000000000 
Fe   0.375000000000000   0.625000000000000   0.875000000000000 
Fe   0.875000000000000   0.125000000000000   0.375000000000000 
Fe   0.375000000000000   0.375000000000000   0.125000000000000 
Fe   0.875000000000000   0.875000000000000   0.625000000000000 
Fe   0.875000000000000   0.875000000000000   0.125000000000000 
Fe   0.375000000000000   0.375000000000000   0.625000000000000 
Fe   0.875000000000000   0.375000000000000   0.625000000000000 
Fe   0.375000000000000   0.875000000000000   0.125000000000000 
Fe   0.375000000000000   0.875000000000000   0.625000000000000 
Fe   0.875000000000000   0.375000000000000   0.125000000000000 
Fe   0.000000000000000   0.000000000000000   0.000000000000000 
Fe   0.750000000000000   0.750000000000000   0.750000000000000 
Fe   0.750000000000000   0.750000000000000   0.000000000000000 
Fe   0.000000000000000   0.000000000000000   0.750000000000000 
Fe   0.750000000000000   0.000000000000000   0.750000000000000 
Fe   0.000000000000000   0.750000000000000   0.000000000000000 
Fe   0.000000000000000   0.750000000000000   0.750000000000000 
Fe   0.750000000000000   0.000000000000000   0.000000000000000 
Fe   0.000000000000000   0.250000000000000   0.250000000000000 
Fe   0.750000000000000   0.000000000000000   0.250000000000000 
Fe   0.000000000000000   0.250000000000000   0.000000000000000 
Fe   0.750000000000000   0.250000000000000   0.000000000000000 
Fe   0.000000000000000   0.000000000000000   0.250000000000000 
Fe   0.750000000000000   0.250000000000000   0.250000000000000 
Fe   0.250000000000000   0.000000000000000   0.250000000000000 
Fe   0.000000000000000   0.750000000000000   0.250000000000000 
Fe   0.250000000000000   0.000000000000000   0.000000000000000 
Fe   0.250000000000000   0.750000000000000   0.250000000000000 
Fe   0.250000000000000   0.750000000000000   0.000000000000000 
Fe   0.250000000000000   0.250000000000000   0.000000000000000 
Fe   0.250000000000000   0.250000000000000   0.750000000000000 
Fe   0.000000000000000   0.250000000000000   0.750000000000000 
Fe   0.250000000000000   0.000000000000000   0.750000000000000 
Fe   0.000000000000000   0.000000000000000   0.500000000000000 
Fe   0.750000000000000   0.750000000000000   0.250000000000000 
Fe   0.750000000000000   0.750000000000000   0.500000000000000 
Fe   0.000000000000000   0.750000000000000   0.500000000000000 
Fe   0.750000000000000   0.000000000000000   0.500000000000000 
Fe   0.500000000000000   0.000000000000000   0.000000000000000 
Fe   0.250000000000000   0.750000000000000   0.750000000000000 
Fe   0.500000000000000   0.750000000000000   0.750000000000000 
Fe   0.500000000000000   0.000000000000000   0.750000000000000 
Fe   0.500000000000000   0.750000000000000   0.000000000000000 
Fe   0.000000000000000   0.500000000000000   0.000000000000000 
Fe   0.750000000000000   0.250000000000000   0.750000000000000 
Fe   0.750000000000000   0.500000000000000   0.750000000000000 
Fe   0.750000000000000   0.500000000000000   0.000000000000000 
Fe   0.000000000000000   0.500000000000000   0.750000000000000 
Fe   0.000000000000000   0.250000000000000   0.500000000000000 
Fe   0.750000000000000   0.250000000000000   0.500000000000000 
Fe   0.500000000000000   0.250000000000000   0.250000000000000 
Fe   0.250000000000000   0.250000000000000   0.250000000000000 
Fe   0.500000000000000   0.250000000000000   0.000000000000000 
Fe   0.500000000000000   0.000000000000000   0.250000000000000 
Fe   0.000000000000000   0.500000000000000   0.250000000000000 
Fe   0.750000000000000   0.500000000000000   0.250000000000000 
Fe   0.250000000000000   0.000000000000000   0.500000000000000 
Fe   0.250000000000000   0.750000000000000   0.500000000000000 
Fe   0.500000000000000   0.750000000000000   0.250000000000000 
Fe   0.250000000000000   0.500000000000000   0.250000000000000 
Fe   0.250000000000000   0.500000000000000   0.000000000000000 
Fe   0.250000000000000   0.250000000000000   0.500000000000000 
Fe   0.500000000000000   0.250000000000000   0.750000000000000 
Fe   0.250000000000000   0.500000000000000   0.750000000000000 
Fe   0.000000000000000   0.500000000000000   0.500000000000000 
Fe   0.750000000000000   0.500000000000000   0.500000000000000 
Fe   0.500000000000000   0.000000000000000   0.500000000000000 
Fe   0.500000000000000   0.750000000000000   0.500000000000000 
Fe   0.500000000000000   0.500000000000000   0.000000000000000 
Fe   0.500000000000000   0.500000000000000   0.750000000000000 
Fe   0.500000000000000   0.250000000000000   0.500000000000000 
Fe   0.500000000000000   0.500000000000000   0.250000000000000 
Fe   0.250000000000000   0.500000000000000   0.500000000000000 
Fe   0.500000000000000   0.500000000000000   0.500000000000000 
Fe   0.375000000000000   0.375000000000000   0.375000000000000 
Fe   0.375000000000000   0.625000000000000   0.625000000000000 
Fe   0.625000000000000   0.375000000000000   0.625000000000000 
Fe   0.625000000000000   0.625000000000000   0.375000000000000 
Fe   0.375000000000000   0.875000000000000   0.875000000000000 
Fe   0.875000000000000   0.375000000000000   0.875000000000000 
Fe   0.875000000000000   0.875000000000000   0.375000000000000 
Fe   0.375000000000000   0.125000000000000   0.125000000000000 
Fe   0.875000000000000   0.625000000000000   0.125000000000000 
Fe   0.875000000000000   0.125000000000000   0.625000000000000 
Fe   0.625000000000000   0.875000000000000   0.125000000000000 
Fe   0.125000000000000   0.375000000000000   0.125000000000000 
Fe   0.125000000000000   0.875000000000000   0.625000000000000 
Fe   0.625000000000000   0.125000000000000   0.875000000000000 
Fe   0.125000000000000   0.625000000000000   0.875000000000000 
Fe   0.125000000000000   0.125000000000000   0.375000000000000 
Si   0.375000000000000   0.375000000000000   0.875000000000000 
Si   0.875000000000000   0.375000000000000   0.375000000000000 
Si   0.375000000000000   0.875000000000000   0.375000000000000 
Si   0.375000000000000   0.625000000000000   0.125000000000000 
Si   0.875000000000000   0.625000000000000   0.625000000000000 
Si   0.375000000000000   0.125000000000000   0.625000000000000 
Si   0.625000000000000   0.375000000000000   0.125000000000000 
Si   0.125000000000000   0.375000000000000   0.625000000000000 
Si   0.625000000000000   0.875000000000000   0.625000000000000 
Si   0.625000000000000   0.625000000000000   0.875000000000000 
Si   0.125000000000000   0.625000000000000   0.375000000000000 
Si   0.625000000000000   0.125000000000000   0.375000000000000 
Si   0.875000000000000   0.875000000000000   0.875000000000000 
Si   0.875000000000000   0.125000000000000   0.125000000000000 
Si   0.125000000000000   0.875000000000000   0.125000000000000 
Si   0.125000000000000   0.125000000000000   0.875000000000000 
K_POINTS {automatic}
  1 1 1 0 0 0
